c --- [ banner ] -------------------------------------------------------------
c 
c CaDiCaL Radically Simplified CDCL SAT Solver
c Copyright (c) 2016-2021 A. Biere, M. Fleury, N. Froleyks
c 
c Version 1.5.2 a5f15211db36c3956764e18194dd5bd63bf3b5e6
c g++ (GCC) 9.3.0 -Wall -Wextra -O3 -DNDEBUG
c Fri Oct 21 01:27:37 EDT 2022 Linux gra-login3 3.10.0-1160.66.1.el7.x86_64 x86_64
c 
c --- [ limit ] --------------------------------------------------------------
c 
c setting conflict limit to 200000 conflicts (due to '200000')
c 
c --- [ parsing input ] ------------------------------------------------------
c 
c reading DIMACS file from '33.cubes2207.adj'
c opening file to read '33.cubes2207.adj'
c found 'p cnf 6160 1595475' header
c parsed 1595475 clauses in 17.27 seconds process time
c closing file '33.cubes2207.adj'
c after reading 1457566777 bytes 1390.0 MB
c 
c --- [ options ] ------------------------------------------------------------
c 
c all options are set to their default value
c 
c --- [ solving ] ------------------------------------------------------------
c 
c time measured in process time since initialization
c 
c  seconds    reductions  redundant   irredundant
c          MB     restarts       trail       variables
c            level   conflicts       glue         remaining
c 
c * 17.27 1379  0 0   0    0    0  0% 0 1595422 2445 40%
c { 18.42 1442  0 0   0    0    0  0% 0 1595422 2445 40%
c i 23.25 1530 357 0  20  118   92 30% 18 1595422 2444 40%
c i 23.29 1531 344 0  21  123   96 30% 20 1595422 2443 40%
c i 23.36 1531 341 0  22  124   96 30% 20 1595422 2418 39%
c i 24.07 1536 299 0  28  144  113 30% 20 1595422 2417 39%
c i 25.20 1543 237 0  40  192  153 30% 21 1595422 2416 39%
c i 25.44 1543 231 0  42  202  160 30% 22 1595422 2415 39%
c i 25.48 1543 227 0  43  208  165 29% 22 1595422 2414 39%
c i 26.09 1544 212 0  51  239  193 29% 27 1595422 2413 39%
c i 26.34 1544 206 0  54  251  203 29% 26 1595422 2412 39%
c i 26.79 1546 201 0  59  267  218 29% 27 1595422 2397 39%
c i 26.87 1546 199 0  60  270  220 29% 27 1595422 2363 38%
c i 27.06 1546 194 0  62  279  227 29% 27 1595422 2362 38%
c i 27.13 1546 191 0  64  286  231 29% 27 1595422 2360 38%
c i 27.36 1546 190 0  67  299  242 29% 28 1595422 2359 38%
c - 30.77 1505 189 1  69  302  241 29% 29 391137 2359 38%
c i 31.25 1506 179 1  76  327  260 29% 29 391137 2358 38%
c i 31.49 1507 166 1  79  355  286 29% 28 391137 2357 38%
c i 31.63 1507 161 1  79  371  294 29% 27 391137 2353 38%
c 
c  seconds     reductions  redundant   irredundant
c          MB      restarts       trail       variables
c             level   conflicts       glue         remaining
c 
c i 31.70 1507 154 1  79  388  310 29% 26 391137 2346 38%
c i 31.80 1507 149 1  79  419  330 29% 26 391137 2345 38%
c i 31.90 1507 146 1  79  433  341 29% 26 391137 2344 38%
c i 32.25 1507 143 1  80  465  368 29% 26 391137 2340 38%
c i 32.53 1507 137 1  87  508  406 29% 27 391137 2338 38%
c i 33.99 1509 125 1 115  650  536 28% 29 391137 2337 38%
c i 34.72 1509 118 1 130  743  581 28% 30 391137 2336 38%
c i 34.86 1509 117 1 131  761  598 28% 31 391137 2335 38%
c i 34.88 1509 116 1 133  766  602 28% 31 391137 2334 38%
c i 34.91 1509 115 1 134  773  608 28% 31 391137 2333 38%
c i 35.50 1509 103 1 139  920  727 29% 30 391137 2332 38%
c i 35.75 1510 103 1 139  954  756 28% 30 391137 2331 38%
c i 36.22 1510 104 1 141  998  798 28% 30 391137 2330 38%
c } 36.25 1510 104 1 141 1003  802 28% 30 391137 2330 38%
c [ 36.25 1510  0 1 141 1003  802  0% 0 391137 2330 38%
c O 36.25 1510  0 1 141 1004  802 12% 0 391137 2330 38%
c i 36.25 1510  0 1 141 1004  802 12% 0 391137 2300 37%
c i 36.25 1510  1 1 141 1005  802 12% 0 391137 2285 37%
c i 36.81 1511 19 1 141 1060  848 32% 14 391137 2284 37%
c - 37.73 1533 21 2 141 1257  867 33% 17 390108 2284 37%
c 
c  seconds    reductions  redundant   irredundant
c          MB     restarts       trail       variables
c            level   conflicts       glue         remaining
c 
c i 38.00 1533 24 2 141 1321  916 33% 19 390108 2283 37%
c i 38.02 1533 24 2 141 1322  916 33% 19 390108 2282 37%
c i 38.34 1533 25 2 141 1809 1250 32% 20 390108 2281 37%
c i 38.45 1533 25 2 141 1958 1348 32% 20 390108 2280 37%
c - 39.25 1533 25 3 142 2689 1404 32% 21 390096 2280 37%
c i 39.67 1532 25 3 142 2770 1458 53% 21 390096 2279 37%
c ] 39.75 1532 24 3 142 2875 1511 53% 20 390096 2279 37%
c 1 39.75 1532 24 3 142 2875 1511 53% 20 390096 2279 37%
c 
c --- [ writing output ] -----------------------------------------------------
c 
c writing simplified CNF to DIMACS file 'simp/33.cubes2207.adj.simp1'
c * 39.75 1532 24 3 142 2875 1511 53% 20 390096 2279 37%
c opening file to write 'simp/33.cubes2207.adj.simp1'
c writing 'p cnf 6160 390093' header
c closing file 'simp/33.cubes2207.adj.simp1'
c after writing 200065136 bytes 190.8 MB
c wrote 390093 clauses in 1.20 seconds process time
c 
c --- [ writing extension ] --------------------------------------------------
c 
c writing extension stack to 'simp/33.cubes2207.adj.ext1'
c opening file to write 'simp/33.cubes2207.adj.ext1'
c closing file 'simp/33.cubes2207.adj.ext1'
c after writing 10802 bytes 0.0 MB
c wrote 737 witnesses in 0.00 seconds process time
c 
c --- [ result ] -------------------------------------------------------------
c 
s SATISFIABLE
c 
c --- [ run-time profiling ] -------------------------------------------------
c 
c process time taken by individual solving procedures
c (percentage relative to process time for solving)
c 
c        22.48  100.00% search
c        17.83   79.31% unstable
c        17.27   76.85% parse
c         3.50   15.56% stable
c         1.15    5.12% lucky
c         0.00    0.00% simplify
c   =================================
c        22.48   54.89% solve
c 
c last line shows process time for solving
c (percentage relative to total process time)
c 
c --- [ statistics ] ---------------------------------------------------------
c 
c chronological:               729        25.36 %  of conflicts
c conflicts:                  2875       127.91    per second
c decisions:                 22793      1014.11    per second
c fixed:                       737        11.96 %  of all variables
c learned:                    2797        97.29 %  per conflict
c learned_lits:             562209       100.00 %  learned literals
c minimized:                     0         0.00 %  learned literals
c shrunken:                 297515        52.92 %  learned literals
c minishrunken:              55001         9.78 %  learned literals
c propagations:             480942         0.02 M  per second
c reduced:                     538        18.71 %  per conflict
c rephased:                      1      2875.00    interval
c restarts:                    142        20.25    interval
c stabilizing:                   1        65.11 %  of conflicts
c subsumed:                    706         0.02 %  of all clauses
c 
c seconds are measured in process time for solving
c 
c --- [ resources ] ----------------------------------------------------------
c 
c total process time since initialization:        40.95    seconds
c total real time since initialization:           41.65    seconds
c maximum resident set size of process:         1704.67    MB
c 
c --- [ shutting down ] ------------------------------------------------------
c 
c exit 10
WARNING! DIMACS header mismatch: wrong number of variables.
============================[ Problem Statistics ]=============================
|                                                                             |
|  Number of variables:          6120                                         |
|  Number of clauses:          390093                                         |
|  Parse time:                   2.75 s                                       |
|  Simplification time:          0.08 s                                       |
|                                                                             |
============================[ Search Statistics ]====================================================
| Conflicts |          ORIGINAL         |          LEARNT          | Num Sols |      SUBGRAPHS      |
|           |    Vars  Clauses Literals |    Limit  Clauses Lit/Cl |          | Canonical Noncanon. |
=====================================================================================================
|       124 |    6027   390117 42918280 |     2000      123    105 |        0 |        57        24 |
|       352 |    6023   390195 42919715 |     2000      347     84 |        0 |       126       102 |
|       577 |    6019   390195 42919715 |     2000      568    102 |        0 |       128       102 |
|      1063 |    6018   390344 42922444 |     2000     1053    100 |        0 |       167       251 |
|      2394 |    6005   391169 42935988 |     3589     1383     14 |        0 |       334      1076 |
|      4882 |    5998   392898 42960875 |     4995     2077     18 |        0 |       664      2805 |
|      9414 |    5994   396291 43007365 |     6302     4112     29 |        0 |      1262      6198 |
|     14910 |    5994   400079 43058155 |     7550     6460     27 |        0 |      1790      9986 |
|     18663 |    5993   401270 43074242 |     8783     6445     47 |        0 |      1917     11177 |
|     30928 |    5993   409691 43183918 |    11196     9324     21 |        0 |      2913     19598 |
|     49671 |    5975   422667 43318484 |    14805     9475     30 |        0 |      3719     32575 |
|     59534 |    5974   423881 43330560 |    16006    11939     44 |        0 |      3846     33789 |
|     74689 |    5937   426061 43354307 |    18420    10509     23 |        0 |      4043     35970 |
|     94460 |    5701   426370 43357844 |    20808    11267     19 |        0 |      4131     36280 |
=====================================================================================================
Number of solutions   : 0
Canonical subgraphs   : 4136           (10 /sec)
          order  3    : 1              (200000 /sec)
          order  4    : 1              (500000 /sec)
          order  5    : 1              (250000 /sec)
          order  6    : 1              (52632 /sec)
          order  7    : 1              (8197 /sec)
          order  8    : 2              (1300 /sec)
          order  9    : 6              (301 /sec)
          order 10    : 14             (62 /sec)
          order 11    : 59             (16 /sec)
          order 12    : 349            (7 /sec)
          order 13    : 3007           (11 /sec)
          order 14    : 355            (16 /sec)
          order 15    : 104            (7 /sec)
          order 16    : 148            (6 /sec)
          order 17    : 78             (5 /sec)
          order 18    : 9              (4 /sec)
          order 19    : 0              (-nan /sec)
          order 20    : 0              (-nan /sec)
          order 21    : 0              (-nan /sec)
          order 22    : 0              (-nan /sec)
Noncanonical subgraphs: 36280          (720 /sec)
          order  3    : 0              (-nan /sec)
          order  4    : 0              (-nan /sec)
          order  5    : 0              (-nan /sec)
          order  6    : 0              (-nan /sec)
          order  7    : 0              (-nan /sec)
          order  8    : 0              (-nan /sec)
          order  9    : 0              (-nan /sec)
          order 10    : 0              (-nan /sec)
          order 11    : 0              (-nan /sec)
          order 12    : 0              (-nan /sec)
          order 13    : 6010           (5243 /sec)
          order 14    : 28295          (632 /sec)
          order 15    : 1391           (779 /sec)
          order 16    : 249            (640 /sec)
          order 17    : 323            (170 /sec)
          order 18    : 12             (31 /sec)
          order 19    : 0              (-nan /sec)
          order 20    : 0              (-nan /sec)
          order 21    : 0              (-nan /sec)
Canonicity checking   : 399.284 s
Noncanonicity checking: 50.3674 s
Total canonicity time : 449.651 s
database reductions   : 15
restarts              : 255
conflicts             : 96947          (187 /sec)
decisions             : 182946         (0.00 % random) (353 /sec)
propagations          : 9367578        (18055 /sec)
conflict literals     : 5791962        (52.36 % deleted)
actual reward         : 0.101321
Memory used           : 248.00 MB
CPU time              : 518.832 s

UNSATISFIABLE
